db/data/9596994314532007812928127341275312107.z3.out
-------------------
2500.145342567
